(set-logic QF_UF)
(declare-fun A0 () Bool)
(declare-fun A1 () Bool)
(declare-fun A2 () Bool)
(declare-fun A3 () Bool)
(declare-fun A4 () Bool)
(declare-fun A6 () Bool)
(declare-fun A7 () Bool)
(declare-fun A8 () Bool)
(declare-fun A9 () Bool)
(declare-fun A10 () Bool)
(declare-fun A11 () Bool)
(declare-fun A12 () Bool)
(declare-fun A13 () Bool)
(declare-fun A14 () Bool)
(declare-fun A15 () Bool)
(declare-fun A16 () Bool)
(declare-fun A17 () Bool)
(declare-fun A19 () Bool)
(declare-fun A20 () Bool)
(declare-fun A21 () Bool)
(declare-fun A22 () Bool)
(declare-fun A24 () Bool)
(declare-fun A25 () Bool)
(declare-fun A28 () Bool)
(declare-fun A29 () Bool)
(assert (let ((.def_0 (not A8))) (let ((.def_1 (not A16))) (let ((.def_2 (or .def_1 .def_0))) (let ((.def_3 (not .def_2))) (let ((.def_4 (or A10 A9))) (let ((.def_5 (not .def_4))) (let ((.def_6 (and .def_5 .def_3))) (let ((.def_7 (not A20))) (let ((.def_8 (not A1))) (let ((.def_9 (and .def_8 .def_7))) (let ((.def_10 (not .def_9))) (let ((.def_11 (not A17))) (let ((.def_12 (or .def_11 A19))) (let ((.def_13 (not .def_12))) (let ((.def_14 (or .def_13 .def_10))) (let ((.def_15 (not .def_14))) (let ((.def_16 (and .def_15 .def_6))) (let ((.def_17 (not .def_16))) (let ((.def_18 (or A4 A4))) (let ((.def_19 (not .def_18))) (let ((.def_20 (not A9))) (let ((.def_21 (and A15 .def_20))) (let ((.def_22 (not .def_21))) (let ((.def_23 (and .def_22 .def_19))) (let ((.def_24 (not .def_23))) (let ((.def_25 (or A2 A20))) (let ((.def_26 (not A19))) (let ((.def_27 (or A8 .def_26))) (let ((.def_28 (not .def_27))) (let ((.def_29 (or .def_28 .def_25))) (let ((.def_30 (not .def_29))) (let ((.def_31 (or .def_30 .def_24))) (let ((.def_32 (or .def_31 .def_17))) (let ((.def_33 (not .def_32))) (let ((.def_34 (not A14))) (let ((.def_35 (or A15 .def_34))) (let ((.def_36 (and A25 A0))) (let ((.def_37 (not .def_36))) (let ((.def_38 (= .def_37 .def_35))) (let ((.def_39 (or A16 A20))) (let ((.def_40 (not .def_39))) (let ((.def_41 (and .def_26 A22))) (let ((.def_42 (or .def_41 .def_40))) (let ((.def_43 (not .def_42))) (let ((.def_44 (and .def_43 .def_38))) (let ((.def_45 (= A6 A10))) (let ((.def_46 (not .def_45))) (let ((.def_47 (and A24 A14))) (let ((.def_48 (not .def_47))) (let ((.def_49 (or .def_48 .def_46))) (let ((.def_50 (not .def_49))) (let ((.def_51 (not A28))) (let ((.def_52 (or .def_51 .def_51))) (let ((.def_53 (not .def_52))) (let ((.def_54 (and A14 A13))) (let ((.def_55 (and .def_54 .def_53))) (let ((.def_56 (and .def_55 .def_50))) (let ((.def_57 (or .def_56 .def_44))) (let ((.def_58 (not .def_57))) (let ((.def_59 (and .def_58 .def_33))) (let ((.def_60 (not .def_59))) (let ((.def_61 (not A24))) (let ((.def_62 (not A25))) (let ((.def_63 (or .def_62 .def_61))) (let ((.def_64 (not .def_63))) (let ((.def_65 (not A0))) (let ((.def_66 (or .def_65 .def_26))) (let ((.def_67 (not .def_66))) (let ((.def_68 (and .def_67 .def_64))) (let ((.def_69 (not .def_68))) (let ((.def_70 (not A6))) (let ((.def_71 (or A3 .def_70))) (let ((.def_72 (or .def_61 A24))) (let ((.def_73 (not .def_72))) (let ((.def_74 (or .def_73 .def_71))) (let ((.def_75 (not .def_74))) (let ((.def_76 (= .def_75 .def_69))) (let ((.def_77 (not A13))) (let ((.def_78 (and .def_77 A28))) (let ((.def_79 (not .def_78))) (let ((.def_80 (not A7))) (let ((.def_81 (not A11))) (let ((.def_82 (and .def_81 .def_80))) (let ((.def_83 (and .def_82 .def_79))) (let ((.def_84 (not A3))) (let ((.def_85 (and A11 .def_84))) (let ((.def_86 (and .def_51 A7))) (let ((.def_87 (or .def_86 .def_85))) (let ((.def_88 (not .def_87))) (let ((.def_89 (or .def_88 .def_83))) (let ((.def_90 (not .def_89))) (let ((.def_91 (and .def_90 .def_76))) (let ((.def_92 (and A6 .def_51))) (let ((.def_93 (not .def_92))) (let ((.def_94 (and A8 A12))) (let ((.def_95 (not .def_94))) (let ((.def_96 (or .def_95 .def_93))) (let ((.def_97 (not .def_96))) (let ((.def_98 (or A8 .def_80))) (let ((.def_99 (or A25 A21))) (let ((.def_100 (not .def_99))) (let ((.def_101 (or .def_100 .def_98))) (let ((.def_102 (not .def_101))) (let ((.def_103 (or .def_102 .def_97))) (let ((.def_104 (not A10))) (let ((.def_105 (= A3 .def_104))) (let ((.def_106 (or .def_62 .def_34))) (let ((.def_107 (or .def_106 .def_105))) (let ((.def_108 (not .def_107))) (let ((.def_109 (not A29))) (let ((.def_110 (and .def_26 .def_109))) (let ((.def_111 (not .def_110))) (let ((.def_112 (not A4))) (let ((.def_113 (and .def_112 .def_51))) (let ((.def_114 (or .def_113 .def_111))) (let ((.def_115 (not .def_114))) (let ((.def_116 (= .def_115 .def_108))) (let ((.def_117 (= .def_116 .def_103))) (let ((.def_118 (not .def_117))) (let ((.def_119 (= .def_118 .def_91))) (let ((.def_120 (not .def_119))) (let ((.def_121 (and .def_120 .def_60))) .def_121)))))))))))))))))))))))))))))))))))))))))))))))))))))))))))))))))))))))))))))))))))))))))))))))))))))))))))))))))))))))))))
(check-sat)
